56
10
0 10 11 16 18 20 23 24 25 28 31 32 33 34 35 37 38 39 40 44 45 49 50 53 55
1 10 11 13 15 16 18 22 23 24 25 31 32 33 35 36 37 38 40 42 45 46 48 52 54 55
2 10 11 13 14 15 17 22 24 25 26 32 34 38 39 40 45 46 49 50 52 53 54 55
3 11 14 16 20 22 23 25 27 32 33 34 36 37 38 39 40 41 42 48 49 50 51 55
4 10 11 13 17 18 19 23 24 31 32 34 35 39 42 46 49 50 52
5 11 13 15 16 18 22 23 24 26 28 30 32 33 35 36 37 39 40 41 42 44 45 46 48 49 50 52 53 54
6 14 16 18 20 21 22 25 29 30 33 34 40 42 44 46 48
7 15 18 22 26 36 47 49
8 12 28 37 41 42 53
9 24 30 35 37 43 44 45
